c File: data_files/evolved_graphs/g3839.col
c
c Auto generated graph
c
p edge 100 2181
e 1 2
e 1 5
e 1 18
e 1 32
e 1 37
e 1 41
e 1 84
e 1 100
e 2 3
e 2 4
e 2 9
e 2 37
e 2 38
e 2 40
e 2 42
e 2 74
e 2 83
e 2 87
e 3 13
e 3 76
e 4 5
e 4 45
e 4 54
e 5 6
e 5 21
e 5 26
e 5 48
e 5 54
e 5 77
e 6 9
e 6 65
e 6 69
e 6 79
e 6 99
e 7 8
e 7 9
e 7 13
e 7 15
e 7 16
e 7 17
e 7 19
e 7 20
e 7 21
e 7 29
e 7 34
e 7 39
e 7 41
e 7 42
e 7 45
e 7 46
e 7 47
e 7 51
e 7 55
e 7 58
e 7 59
e 7 60
e 7 61
e 7 62
e 7 65
e 7 66
e 7 68
e 7 69
e 7 70
e 7 71
e 7 72
e 7 76
e 7 77
e 7 78
e 7 81
e 7 85
e 7 86
e 7 88
e 7 89
e 7 90
e 7 93
e 7 95
e 7 96
e 7 97
e 7 98
e 7 99
e 8 9
e 8 14
e 8 15
e 8 16
e 8 25
e 8 28
e 8 31
e 8 32
e 8 36
e 8 40
e 8 45
e 8 46
e 8 50
e 8 51
e 8 52
e 8 53
e 8 54
e 8 55
e 8 56
e 8 57
e 8 59
e 8 60
e 8 61
e 8 62
e 8 63
e 8 64
e 8 66
e 8 67
e 8 68
e 8 69
e 8 74
e 8 76
e 8 77
e 8 78
e 8 80
e 8 81
e 8 82
e 8 83
e 8 86
e 8 87
e 8 88
e 8 90
e 8 91
e 8 92
e 8 94
e 8 95
e 8 96
e 8 97
e 8 99
e 8 100
e 9 12
e 9 16
e 9 17
e 9 18
e 9 19
e 9 21
e 9 23
e 9 26
e 9 27
e 9 30
e 9 34
e 9 38
e 9 43
e 9 50
e 9 51
e 9 52
e 9 54
e 9 58
e 9 60
e 9 61
e 9 63
e 9 65
e 9 68
e 9 70
e 9 72
e 9 77
e 9 78
e 9 79
e 9 80
e 9 82
e 9 84
e 9 85
e 9 87
e 9 88
e 9 89
e 9 92
e 9 94
e 9 97
e 9 98
e 9 99
e 10 11
e 10 12
e 10 14
e 10 18
e 10 19
e 10 20
e 10 22
e 10 23
e 10 25
e 10 27
e 10 28
e 10 29
e 10 33
e 10 42
e 10 44
e 10 47
e 10 48
e 10 53
e 10 57
e 10 60
e 10 62
e 10 64
e 10 67
e 10 69
e 10 73
e 10 74
e 10 77
e 10 78
e 10 80
e 10 82
e 10 85
e 10 87
e 10 88
e 10 89
e 10 90
e 10 91
e 10 93
e 10 96
e 11 19
e 11 21
e 11 23
e 11 24
e 11 28
e 11 32
e 11 37
e 11 44
e 11 45
e 11 50
e 11 53
e 11 56
e 11 61
e 11 62
e 11 63
e 11 65
e 11 66
e 11 67
e 11 68
e 11 70
e 11 72
e 11 73
e 11 74
e 11 75
e 11 77
e 11 78
e 11 81
e 11 83
e 11 84
e 11 85
e 11 90
e 11 91
e 11 92
e 11 93
e 11 95
e 11 97
e 11 98
e 11 100
e 12 15
e 12 18
e 12 24
e 12 25
e 12 26
e 12 28
e 12 30
e 12 37
e 12 41
e 12 43
e 12 44
e 12 49
e 12 51
e 12 53
e 12 54
e 12 60
e 12 61
e 12 63
e 12 65
e 12 66
e 12 67
e 12 69
e 12 70
e 12 71
e 12 72
e 12 73
e 12 74
e 12 76
e 12 77
e 12 78
e 12 79
e 12 80
e 12 83
e 12 84
e 12 85
e 12 87
e 12 88
e 12 90
e 12 91
e 12 93
e 12 94
e 12 95
e 12 97
e 12 99
e 12 100
e 13 15
e 13 18
e 13 19
e 13 25
e 13 30
e 13 34
e 13 38
e 13 41
e 13 42
e 13 47
e 13 49
e 13 51
e 13 52
e 13 54
e 13 55
e 13 57
e 13 59
e 13 61
e 13 62
e 13 63
e 13 66
e 13 67
e 13 69
e 13 70
e 13 71
e 13 72
e 13 73
e 13 74
e 13 75
e 13 76
e 13 78
e 13 81
e 13 84
e 13 85
e 13 87
e 13 89
e 13 90
e 13 91
e 13 92
e 13 93
e 13 94
e 13 97
e 13 99
e 13 100
e 14 15
e 14 25
e 14 28
e 14 32
e 14 35
e 14 38
e 14 39
e 14 47
e 14 50
e 14 51
e 14 53
e 14 55
e 14 60
e 14 61
e 14 62
e 14 63
e 14 64
e 14 65
e 14 67
e 14 69
e 14 70
e 14 73
e 14 75
e 14 76
e 14 77
e 14 79
e 14 80
e 14 81
e 14 82
e 14 83
e 14 84
e 14 87
e 14 88
e 14 90
e 14 91
e 14 93
e 14 96
e 14 97
e 14 99
e 14 100
e 15 16
e 15 21
e 15 23
e 15 24
e 15 25
e 15 26
e 15 29
e 15 37
e 15 41
e 15 47
e 15 49
e 15 52
e 15 53
e 15 57
e 15 58
e 15 63
e 15 66
e 15 67
e 15 69
e 15 70
e 15 71
e 15 72
e 15 74
e 15 76
e 15 77
e 15 79
e 15 80
e 15 81
e 15 82
e 15 84
e 15 88
e 15 89
e 15 90
e 15 91
e 15 92
e 15 93
e 15 95
e 15 98
e 15 99
e 15 100
e 16 20
e 16 24
e 16 31
e 16 39
e 16 40
e 16 42
e 16 48
e 16 50
e 16 51
e 16 54
e 16 61
e 16 62
e 16 64
e 16 65
e 16 67
e 16 69
e 16 70
e 16 73
e 16 74
e 16 75
e 16 76
e 16 77
e 16 78
e 16 80
e 16 82
e 16 83
e 16 85
e 16 86
e 16 87
e 16 88
e 16 89
e 16 91
e 16 94
e 16 95
e 16 97
e 16 98
e 16 99
e 16 100
e 17 21
e 17 22
e 17 23
e 17 25
e 17 29
e 17 31
e 17 34
e 17 43
e 17 45
e 17 50
e 17 51
e 17 53
e 17 54
e 17 55
e 17 59
e 17 61
e 17 63
e 17 65
e 17 68
e 17 70
e 17 74
e 17 75
e 17 77
e 17 78
e 17 79
e 17 83
e 17 84
e 17 87
e 17 88
e 17 90
e 17 92
e 17 93
e 17 94
e 17 95
e 17 96
e 17 97
e 17 98
e 17 100
e 18 21
e 18 22
e 18 25
e 18 26
e 18 28
e 18 32
e 18 34
e 18 36
e 18 41
e 18 44
e 18 50
e 18 51
e 18 52
e 18 56
e 18 60
e 18 62
e 18 63
e 18 65
e 18 66
e 18 67
e 18 68
e 18 70
e 18 71
e 18 74
e 18 75
e 18 76
e 18 80
e 18 82
e 18 83
e 18 84
e 18 85
e 18 86
e 18 89
e 18 90
e 18 91
e 18 96
e 18 100
e 19 24
e 19 31
e 19 32
e 19 33
e 19 37
e 19 39
e 19 41
e 19 42
e 19 46
e 19 59
e 19 60
e 19 61
e 19 63
e 19 64
e 19 65
e 19 66
e 19 67
e 19 68
e 19 71
e 19 72
e 19 73
e 19 74
e 19 76
e 19 77
e 19 78
e 19 79
e 19 80
e 19 83
e 19 91
e 19 93
e 19 94
e 19 95
e 19 96
e 19 97
e 19 100
e 20 23
e 20 24
e 20 28
e 20 32
e 20 35
e 20 36
e 20 37
e 20 51
e 20 55
e 20 58
e 20 59
e 20 61
e 20 64
e 20 65
e 20 67
e 20 68
e 20 70
e 20 73
e 20 74
e 20 75
e 20 76
e 20 77
e 20 78
e 20 79
e 20 80
e 20 82
e 20 83
e 20 84
e 20 86
e 20 89
e 20 90
e 20 92
e 20 93
e 20 95
e 20 98
e 20 99
e 20 100
e 21 22
e 21 24
e 21 27
e 21 28
e 21 30
e 21 31
e 21 33
e 21 37
e 21 41
e 21 42
e 21 45
e 21 47
e 21 49
e 21 53
e 21 57
e 21 58
e 21 59
e 21 60
e 21 61
e 21 62
e 21 63
e 21 65
e 21 66
e 21 70
e 21 72
e 21 73
e 21 75
e 21 76
e 21 77
e 21 79
e 21 80
e 21 81
e 21 82
e 21 83
e 21 84
e 21 86
e 21 87
e 21 89
e 21 91
e 21 93
e 21 97
e 21 98
e 21 99
e 21 100
e 22 23
e 22 26
e 22 27
e 22 32
e 22 43
e 22 44
e 22 46
e 22 47
e 22 49
e 22 52
e 22 53
e 22 58
e 22 60
e 22 63
e 22 67
e 22 68
e 22 69
e 22 70
e 22 71
e 22 72
e 22 75
e 22 76
e 22 78
e 22 80
e 22 82
e 22 84
e 22 85
e 22 86
e 22 89
e 22 90
e 22 91
e 22 92
e 22 98
e 22 99
e 22 100
e 23 24
e 23 26
e 23 28
e 23 30
e 23 31
e 23 34
e 23 35
e 23 36
e 23 37
e 23 40
e 23 44
e 23 46
e 23 49
e 23 55
e 23 56
e 23 57
e 23 59
e 23 60
e 23 62
e 23 63
e 23 65
e 23 66
e 23 68
e 23 72
e 23 74
e 23 75
e 23 76
e 23 78
e 23 79
e 23 80
e 23 81
e 23 83
e 23 85
e 23 86
e 23 87
e 23 88
e 23 89
e 23 91
e 23 93
e 23 95
e 23 96
e 23 97
e 23 100
e 24 26
e 24 28
e 24 30
e 24 32
e 24 33
e 24 36
e 24 38
e 24 39
e 24 43
e 24 45
e 24 46
e 24 50
e 24 53
e 24 57
e 24 58
e 24 60
e 24 62
e 24 63
e 24 65
e 24 66
e 24 67
e 24 68
e 24 71
e 24 72
e 24 74
e 24 76
e 24 78
e 24 79
e 24 80
e 24 82
e 24 83
e 24 84
e 24 87
e 24 88
e 24 89
e 24 90
e 24 91
e 24 93
e 25 26
e 25 30
e 25 35
e 25 38
e 25 39
e 25 41
e 25 44
e 25 46
e 25 47
e 25 50
e 25 59
e 25 61
e 25 62
e 25 63
e 25 64
e 25 66
e 25 67
e 25 69
e 25 71
e 25 72
e 25 74
e 25 76
e 25 78
e 25 80
e 25 81
e 25 82
e 25 83
e 25 84
e 25 85
e 25 86
e 25 87
e 25 88
e 25 91
e 25 92
e 25 95
e 25 98
e 25 99
e 26 30
e 26 33
e 26 35
e 26 38
e 26 41
e 26 43
e 26 44
e 26 46
e 26 47
e 26 48
e 26 53
e 26 55
e 26 60
e 26 62
e 26 63
e 26 64
e 26 66
e 26 69
e 26 70
e 26 71
e 26 74
e 26 76
e 26 79
e 26 80
e 26 82
e 26 83
e 26 84
e 26 85
e 26 87
e 26 88
e 26 92
e 26 93
e 26 94
e 26 95
e 26 96
e 26 97
e 27 28
e 27 29
e 27 30
e 27 36
e 27 38
e 27 40
e 27 42
e 27 43
e 27 45
e 27 49
e 27 53
e 27 57
e 27 58
e 27 59
e 27 60
e 27 61
e 27 62
e 27 63
e 27 65
e 27 68
e 27 69
e 27 75
e 27 77
e 27 79
e 27 80
e 27 81
e 27 83
e 27 84
e 27 85
e 27 87
e 27 88
e 27 90
e 27 95
e 27 98
e 27 99
e 28 29
e 28 32
e 28 40
e 28 41
e 28 43
e 28 44
e 28 52
e 28 55
e 28 58
e 28 60
e 28 61
e 28 62
e 28 65
e 28 66
e 28 67
e 28 68
e 28 69
e 28 70
e 28 71
e 28 73
e 28 74
e 28 75
e 28 76
e 28 77
e 28 78
e 28 79
e 28 80
e 28 81
e 28 85
e 28 86
e 28 87
e 28 88
e 28 90
e 28 91
e 28 92
e 28 93
e 28 94
e 28 95
e 28 97
e 28 98
e 28 100
e 29 30
e 29 33
e 29 34
e 29 35
e 29 37
e 29 40
e 29 41
e 29 42
e 29 45
e 29 51
e 29 52
e 29 54
e 29 55
e 29 56
e 29 57
e 29 58
e 29 59
e 29 62
e 29 64
e 29 65
e 29 66
e 29 67
e 29 68
e 29 71
e 29 73
e 29 74
e 29 79
e 29 80
e 29 81
e 29 84
e 29 85
e 29 86
e 29 87
e 29 89
e 29 90
e 29 94
e 29 95
e 29 98
e 30 32
e 30 38
e 30 39
e 30 41
e 30 42
e 30 43
e 30 44
e 30 47
e 30 48
e 30 53
e 30 55
e 30 61
e 30 64
e 30 65
e 30 66
e 30 75
e 30 76
e 30 77
e 30 78
e 30 79
e 30 81
e 30 82
e 30 84
e 30 86
e 30 93
e 30 95
e 30 96
e 30 98
e 30 99
e 30 100
e 31 33
e 31 37
e 31 39
e 31 42
e 31 43
e 31 48
e 31 53
e 31 54
e 31 55
e 31 57
e 31 61
e 31 62
e 31 63
e 31 64
e 31 65
e 31 66
e 31 67
e 31 68
e 31 69
e 31 73
e 31 74
e 31 76
e 31 77
e 31 81
e 31 82
e 31 85
e 31 87
e 31 88
e 31 90
e 31 91
e 31 93
e 31 95
e 31 98
e 31 99
e 32 33
e 32 35
e 32 38
e 32 43
e 32 44
e 32 48
e 32 50
e 32 51
e 32 56
e 32 58
e 32 60
e 32 61
e 32 62
e 32 63
e 32 64
e 32 66
e 32 67
e 32 70
e 32 71
e 32 72
e 32 73
e 32 75
e 32 77
e 32 79
e 32 80
e 32 81
e 32 82
e 32 86
e 32 87
e 32 91
e 32 92
e 32 93
e 32 94
e 32 95
e 32 96
e 32 97
e 32 98
e 33 35
e 33 40
e 33 43
e 33 44
e 33 45
e 33 47
e 33 49
e 33 50
e 33 51
e 33 52
e 33 54
e 33 57
e 33 63
e 33 66
e 33 67
e 33 69
e 33 70
e 33 71
e 33 72
e 33 74
e 33 75
e 33 80
e 33 82
e 33 83
e 33 84
e 33 85
e 33 86
e 33 91
e 33 93
e 33 95
e 33 96
e 33 99
e 33 100
e 34 44
e 34 46
e 34 51
e 34 52
e 34 56
e 34 57
e 34 58
e 34 59
e 34 60
e 34 65
e 34 67
e 34 68
e 34 70
e 34 71
e 34 73
e 34 74
e 34 76
e 34 77
e 34 78
e 34 79
e 34 81
e 34 84
e 34 86
e 34 89
e 34 91
e 34 92
e 34 94
e 34 95
e 34 96
e 34 97
e 34 98
e 34 99
e 34 100
e 35 42
e 35 47
e 35 50
e 35 54
e 35 56
e 35 57
e 35 60
e 35 62
e 35 63
e 35 65
e 35 66
e 35 69
e 35 71
e 35 73
e 35 74
e 35 75
e 35 76
e 35 77
e 35 79
e 35 80
e 35 83
e 35 84
e 35 88
e 35 89
e 35 90
e 35 93
e 35 94
e 35 98
e 35 99
e 36 37
e 36 38
e 36 40
e 36 41
e 36 42
e 36 43
e 36 45
e 36 49
e 36 51
e 36 52
e 36 57
e 36 59
e 36 62
e 36 64
e 36 65
e 36 68
e 36 69
e 36 71
e 36 72
e 36 73
e 36 74
e 36 76
e 36 77
e 36 78
e 36 79
e 36 82
e 36 83
e 36 84
e 36 85
e 36 86
e 36 87
e 36 88
e 36 90
e 36 91
e 36 92
e 36 93
e 36 94
e 36 95
e 36 98
e 36 99
e 37 38
e 37 41
e 37 49
e 37 50
e 37 53
e 37 54
e 37 58
e 37 60
e 37 61
e 37 62
e 37 63
e 37 65
e 37 68
e 37 69
e 37 70
e 37 71
e 37 72
e 37 74
e 37 75
e 37 76
e 37 77
e 37 78
e 37 79
e 37 82
e 37 83
e 37 84
e 37 85
e 37 87
e 37 88
e 37 92
e 37 93
e 37 94
e 37 95
e 37 96
e 37 97
e 37 98
e 37 100
e 38 42
e 38 44
e 38 45
e 38 47
e 38 49
e 38 50
e 38 54
e 38 56
e 38 58
e 38 62
e 38 63
e 38 64
e 38 67
e 38 69
e 38 70
e 38 73
e 38 75
e 38 76
e 38 77
e 38 78
e 38 79
e 38 81
e 38 82
e 38 83
e 38 88
e 38 89
e 38 90
e 38 92
e 38 94
e 38 95
e 38 96
e 38 97
e 38 98
e 38 99
e 38 100
e 39 41
e 39 42
e 39 46
e 39 52
e 39 57
e 39 58
e 39 60
e 39 64
e 39 66
e 39 67
e 39 68
e 39 70
e 39 72
e 39 73
e 39 75
e 39 76
e 39 78
e 39 79
e 39 80
e 39 81
e 39 82
e 39 84
e 39 85
e 39 87
e 39 89
e 39 91
e 39 93
e 39 94
e 39 96
e 39 97
e 39 99
e 39 100
e 40 43
e 40 46
e 40 47
e 40 51
e 40 54
e 40 55
e 40 57
e 40 60
e 40 61
e 40 62
e 40 65
e 40 68
e 40 69
e 40 70
e 40 73
e 40 74
e 40 75
e 40 76
e 40 80
e 40 81
e 40 82
e 40 83
e 40 85
e 40 86
e 40 87
e 40 89
e 40 90
e 40 91
e 40 93
e 40 94
e 40 95
e 40 96
e 40 97
e 40 99
e 40 100
e 41 44
e 41 46
e 41 49
e 41 52
e 41 55
e 41 58
e 41 60
e 41 61
e 41 63
e 41 64
e 41 66
e 41 67
e 41 70
e 41 71
e 41 72
e 41 73
e 41 74
e 41 75
e 41 76
e 41 77
e 41 78
e 41 82
e 41 84
e 41 85
e 41 86
e 41 87
e 41 90
e 41 91
e 41 93
e 41 97
e 41 98
e 41 99
e 41 100
e 42 43
e 42 45
e 42 49
e 42 50
e 42 52
e 42 53
e 42 60
e 42 61
e 42 64
e 42 65
e 42 66
e 42 69
e 42 73
e 42 76
e 42 80
e 42 82
e 42 84
e 42 85
e 42 86
e 42 87
e 42 88
e 42 89
e 42 90
e 42 92
e 42 93
e 42 94
e 42 95
e 42 96
e 42 98
e 42 99
e 42 100
e 43 44
e 43 46
e 43 49
e 43 52
e 43 57
e 43 58
e 43 60
e 43 61
e 43 63
e 43 64
e 43 65
e 43 66
e 43 69
e 43 74
e 43 75
e 43 78
e 43 79
e 43 80
e 43 81
e 43 82
e 43 88
e 43 89
e 43 90
e 43 93
e 43 94
e 43 95
e 43 97
e 43 98
e 43 99
e 44 45
e 44 46
e 44 51
e 44 54
e 44 55
e 44 60
e 44 61
e 44 65
e 44 66
e 44 67
e 44 71
e 44 72
e 44 73
e 44 74
e 44 76
e 44 81
e 44 82
e 44 83
e 44 84
e 44 85
e 44 88
e 44 89
e 44 91
e 44 92
e 44 94
e 44 97
e 44 100
e 45 52
e 45 53
e 45 54
e 45 55
e 45 56
e 45 58
e 45 59
e 45 61
e 45 62
e 45 64
e 45 65
e 45 66
e 45 67
e 45 68
e 45 69
e 45 70
e 45 71
e 45 73
e 45 74
e 45 75
e 45 77
e 45 78
e 45 79
e 45 80
e 45 81
e 45 83
e 45 84
e 45 85
e 45 87
e 45 89
e 45 91
e 45 93
e 45 94
e 45 95
e 45 98
e 45 99
e 45 100
e 46 47
e 46 52
e 46 56
e 46 58
e 46 59
e 46 60
e 46 62
e 46 66
e 46 67
e 46 68
e 46 70
e 46 72
e 46 73
e 46 74
e 46 76
e 46 80
e 46 82
e 46 85
e 46 87
e 46 88
e 46 89
e 46 92
e 46 95
e 46 96
e 46 97
e 46 98
e 46 99
e 47 49
e 47 50
e 47 56
e 47 60
e 47 61
e 47 62
e 47 64
e 47 65
e 47 66
e 47 67
e 47 68
e 47 69
e 47 70
e 47 71
e 47 73
e 47 75
e 47 76
e 47 77
e 47 78
e 47 79
e 47 80
e 47 81
e 47 83
e 47 84
e 47 85
e 47 88
e 47 89
e 47 90
e 47 91
e 47 92
e 47 93
e 47 94
e 47 95
e 47 96
e 47 97
e 47 98
e 47 99
e 47 100
e 48 49
e 48 52
e 48 55
e 48 56
e 48 57
e 48 60
e 48 61
e 48 64
e 48 65
e 48 68
e 48 69
e 48 70
e 48 71
e 48 72
e 48 73
e 48 74
e 48 75
e 48 77
e 48 79
e 48 81
e 48 82
e 48 83
e 48 84
e 48 88
e 48 90
e 48 91
e 48 92
e 48 93
e 48 94
e 48 96
e 48 97
e 48 98
e 48 99
e 48 100
e 49 60
e 49 61
e 49 63
e 49 65
e 49 66
e 49 67
e 49 69
e 49 70
e 49 71
e 49 72
e 49 73
e 49 75
e 49 76
e 49 79
e 49 80
e 49 81
e 49 85
e 49 86
e 49 88
e 49 89
e 49 90
e 49 93
e 49 94
e 49 96
e 49 98
e 49 99
e 50 52
e 50 53
e 50 54
e 50 59
e 50 60
e 50 61
e 50 62
e 50 63
e 50 64
e 50 66
e 50 67
e 50 69
e 50 70
e 50 71
e 50 72
e 50 73
e 50 76
e 50 78
e 50 79
e 50 80
e 50 81
e 50 82
e 50 83
e 50 85
e 50 88
e 50 89
e 50 90
e 50 92
e 50 95
e 50 96
e 50 97
e 50 99
e 50 100
e 51 54
e 51 55
e 51 60
e 51 61
e 51 64
e 51 65
e 51 66
e 51 69
e 51 72
e 51 76
e 51 78
e 51 79
e 51 80
e 51 81
e 51 82
e 51 83
e 51 86
e 51 87
e 51 91
e 51 93
e 51 95
e 51 96
e 51 97
e 51 100
e 52 55
e 52 60
e 52 61
e 52 62
e 52 64
e 52 65
e 52 66
e 52 67
e 52 68
e 52 69
e 52 70
e 52 71
e 52 72
e 52 73
e 52 75
e 52 76
e 52 77
e 52 78
e 52 79
e 52 80
e 52 81
e 52 82
e 52 83
e 52 86
e 52 88
e 52 89
e 52 91
e 52 92
e 52 94
e 52 96
e 53 54
e 53 55
e 53 59
e 53 60
e 53 61
e 53 63
e 53 66
e 53 67
e 53 71
e 53 72
e 53 73
e 53 74
e 53 75
e 53 76
e 53 78
e 53 80
e 53 81
e 53 83
e 53 84
e 53 85
e 53 86
e 53 88
e 53 89
e 53 90
e 53 91
e 53 92
e 53 93
e 53 96
e 53 97
e 54 61
e 54 63
e 54 64
e 54 66
e 54 67
e 54 68
e 54 69
e 54 70
e 54 71
e 54 72
e 54 74
e 54 76
e 54 77
e 54 79
e 54 80
e 54 81
e 54 82
e 54 83
e 54 85
e 54 86
e 54 88
e 54 89
e 54 91
e 54 94
e 54 95
e 54 97
e 54 98
e 54 99
e 54 100
e 55 58
e 55 60
e 55 61
e 55 62
e 55 63
e 55 64
e 55 65
e 55 66
e 55 67
e 55 68
e 55 69
e 55 70
e 55 71
e 55 72
e 55 73
e 55 74
e 55 75
e 55 76
e 55 78
e 55 79
e 55 83
e 55 86
e 55 87
e 55 88
e 55 89
e 55 90
e 55 92
e 55 93
e 55 94
e 55 95
e 55 96
e 55 97
e 55 99
e 56 57
e 56 58
e 56 59
e 56 61
e 56 62
e 56 64
e 56 65
e 56 67
e 56 68
e 56 69
e 56 70
e 56 71
e 56 73
e 56 74
e 56 77
e 56 78
e 56 79
e 56 80
e 56 81
e 56 82
e 56 83
e 56 85
e 56 88
e 56 90
e 56 91
e 56 93
e 56 94
e 56 95
e 56 98
e 56 99
e 56 100
e 57 61
e 57 65
e 57 66
e 57 67
e 57 68
e 57 69
e 57 70
e 57 71
e 57 72
e 57 73
e 57 74
e 57 76
e 57 79
e 57 81
e 57 83
e 57 84
e 57 86
e 57 87
e 57 88
e 57 89
e 57 90
e 57 92
e 57 94
e 58 61
e 58 62
e 58 64
e 58 65
e 58 66
e 58 67
e 58 69
e 58 71
e 58 72
e 58 73
e 58 74
e 58 75
e 58 76
e 58 79
e 58 80
e 58 81
e 58 82
e 58 83
e 58 84
e 58 86
e 58 92
e 58 93
e 58 95
e 58 96
e 58 98
e 58 99
e 59 60
e 59 62
e 59 65
e 59 66
e 59 67
e 59 68
e 59 71
e 59 72
e 59 73
e 59 74
e 59 78
e 59 79
e 59 81
e 59 83
e 59 84
e 59 85
e 59 87
e 59 89
e 59 91
e 59 92
e 59 94
e 59 95
e 59 96
e 59 97
e 59 98
e 59 99
e 59 100
e 60 64
e 60 67
e 60 69
e 60 70
e 60 74
e 60 77
e 60 78
e 60 81
e 60 82
e 60 85
e 60 86
e 60 88
e 60 90
e 60 95
e 60 98
e 60 100
e 61 65
e 61 66
e 61 68
e 61 69
e 61 70
e 61 71
e 61 76
e 61 78
e 61 79
e 61 81
e 61 82
e 61 94
e 61 95
e 61 96
e 61 97
e 61 98
e 62 67
e 62 68
e 62 70
e 62 72
e 62 75
e 62 77
e 62 78
e 62 82
e 62 85
e 62 86
e 62 87
e 62 90
e 62 92
e 62 95
e 62 97
e 63 64
e 63 70
e 63 72
e 63 73
e 63 75
e 63 76
e 63 78
e 63 79
e 63 85
e 63 86
e 63 88
e 63 96
e 63 97
e 63 98
e 63 100
e 64 65
e 64 69
e 64 70
e 64 72
e 64 79
e 64 80
e 64 81
e 64 83
e 64 84
e 64 87
e 64 89
e 64 93
e 64 95
e 65 69
e 65 70
e 65 72
e 65 73
e 65 75
e 65 76
e 65 78
e 65 79
e 65 84
e 65 87
e 65 91
e 65 94
e 65 95
e 65 98
e 66 68
e 66 69
e 66 77
e 66 78
e 66 80
e 66 81
e 66 82
e 66 83
e 66 84
e 66 86
e 66 87
e 66 88
e 66 89
e 66 94
e 66 96
e 66 97
e 67 68
e 67 71
e 67 79
e 67 80
e 67 81
e 67 87
e 67 88
e 67 89
e 67 91
e 67 92
e 67 95
e 68 74
e 68 81
e 68 85
e 68 91
e 68 93
e 68 94
e 68 95
e 68 96
e 68 100
e 69 72
e 69 73
e 69 75
e 69 76
e 69 77
e 69 78
e 69 79
e 69 81
e 69 88
e 69 89
e 69 95
e 70 71
e 70 78
e 70 79
e 70 87
e 70 88
e 70 94
e 71 74
e 71 76
e 71 78
e 71 79
e 71 81
e 71 82
e 71 84
e 71 85
e 71 92
e 71 97
e 72 78
e 72 82
e 72 84
e 72 87
e 72 88
e 72 90
e 72 91
e 72 92
e 72 93
e 72 96
e 72 98
e 72 100
e 73 82
e 73 86
e 73 88
e 73 90
e 73 95
e 73 100
e 74 77
e 74 78
e 74 82
e 74 85
e 74 93
e 74 95
e 74 99
e 75 76
e 75 77
e 75 80
e 75 81
e 75 82
e 75 85
e 75 86
e 75 95
e 75 96
e 75 99
e 76 80
e 76 85
e 76 87
e 76 89
e 76 91
e 76 93
e 76 95
e 76 96
e 76 100
e 77 80
e 77 82
e 77 83
e 77 85
e 77 86
e 77 89
e 77 92
e 77 95
e 77 98
e 78 82
e 78 84
e 78 86
e 78 89
e 78 92
e 78 94
e 78 96
e 78 97
e 79 81
e 79 92
e 79 95
e 79 96
e 79 97
e 79 99
e 79 100
e 80 83
e 80 85
e 80 92
e 80 97
e 80 99
e 80 100
e 81 83
e 81 86
e 81 88
e 81 91
e 81 95
e 81 97
e 81 98
e 82 83
e 82 89
e 82 94
e 82 95
e 82 98
e 83 87
e 83 88
e 83 92
e 83 97
e 83 100
e 84 89
e 84 90
e 84 91
e 84 92
e 84 95
e 84 99
e 85 90
e 85 91
e 85 93
e 85 94
e 85 100
e 86 91
e 86 95
e 86 96
e 86 97
e 87 88
e 87 90
e 87 92
e 87 98
e 88 90
e 88 93
e 88 94
e 88 96
e 88 98
e 88 99
e 89 91
e 89 92
e 89 93
e 89 95
e 90 91
e 90 92
e 90 93
e 90 96
e 90 97
e 91 93
e 91 98
e 91 99
e 92 95
e 92 96
e 93 94
e 93 100
e 94 96
e 95 97
e 96 98
e 96 99
e 96 100
e 97 100
e 98 99
e 99 100
